p cnf 63 189
a 43 7 0
e 1 2 3 4 5 6 8 9 10 11 12 13 14 15 16 17 18 19 20 21 22 23 24 25 26 27 28 29 30 31 32 33 34 35 36 37 38 39 40 41 42 44 45 46 47 48 49 50 51 52 53 54 55 56 57 58 59 60 61 62 63 0
-2 -1 0
-2 -1 0
1 2 0
5 -3 0
5 -4 0
3 4 -5 0
-5 6 0
5 6 0
8 6 0
8 7 0
-6 -7 -8 0
-8 -6 -9 0
8 6 -9 0
-8 6 9 0
8 -6 9 0
10 2 0
10 -9 0
-2 9 -10 0
13 -12 0
13 -1 0
12 1 -13 0
14 -11 0
14 13 0
11 -13 -14 0
16 14 0
16 -15 0
-14 15 -16 0
-17 -2 0
-17 -5 0
2 5 17 0
16 -17 -18 0
-16 17 -18 0
16 17 18 0
-16 -17 18 0
19 -10 0
19 18 0
10 -18 -19 0
-20 -12 0
-20 7 0
12 -7 20 0
-20 21 0
20 21 0
-22 -19 0
-22 21 0
19 -21 22 0
23 -5 0
23 6 0
5 -6 -23 0
24 -10 0
24 -23 0
10 23 -24 0
-26 -24 0
-26 25 0
24 -25 26 0
27 -24 0
27 26 0
24 -26 -27 0
-3 -12 -28 0
3 12 -28 0
-3 12 28 0
3 -12 28 0
15 -28 -29 0
-15 28 -29 0
15 28 29 0
-15 -28 29 0
-30 -29 0
-30 23 0
29 -23 30 0
31 25 0
31 11 0
-25 -11 -31 0
-32 -31 0
-32 5 0
31 -5 32 0
33 -30 0
33 32 0
30 -32 -33 0
34 27 0
34 33 0
-27 -33 -34 0
36 16 0
36 35 0
-16 -35 -36 0
37 4 0
37 1 0
-4 -1 -37 0
-36 37 -38 0
36 -37 -38 0
-36 -37 38 0
36 37 38 0
11 -5 -39 0
-11 5 -39 0
11 5 39 0
-11 -5 39 0
41 39 0
41 -40 0
-39 40 -41 0
-42 -7 0
-42 -11 0
7 11 42 0
40 7 -43 0
-40 -7 -43 0
40 -7 43 0
-40 7 43 0
44 14 0
44 -43 0
-14 43 -44 0
45 8 0
45 -44 0
-8 44 -45 0
-46 -28 0
-46 5 0
28 -5 46 0
-47 45 0
-47 -46 0
-45 46 47 0
42 -47 -48 0
-42 47 -48 0
42 47 48 0
-42 -47 48 0
14 -20 -49 0
-14 20 -49 0
14 20 49 0
-14 -20 49 0
-50 -25 0
-50 49 0
25 -49 50 0
51 -9 0
51 18 0
9 -18 -51 0
-52 12 0
-52 -12 0
51 52 -53 0
-51 -52 -53 0
51 -52 53 0
-51 52 53 0
-54 -50 0
-54 -53 0
50 53 54 0
-7 6 -55 0
7 -6 -55 0
-7 -6 55 0
7 6 55 0
-56 -54 0
-56 55 0
54 -55 56 0
18 4 -57 0
-18 -4 -57 0
18 -4 57 0
-18 4 57 0
58 -56 0
58 57 0
56 -57 -58 0
-48 58 -59 0
48 -58 -59 0
-48 -58 59 0
48 58 59 0
-60 -41 0
-60 59 0
41 -59 60 0
-38 -60 -61 0
38 60 -61 0
-38 60 61 0
38 -60 61 0
-34 61 -62 0
34 -61 -62 0
-34 -61 62 0
34 61 62 0
63 -22 0
63 -62 0
22 62 -63 0
-50 19 -46 11 -12 0
-15 33 62 -9 3 16 0
45 -38 -57 -25 56 0
-26 5 -40 48 4 35 0
41 -47 17 0
46 37 22 -47 -31 0
-43 1 34 -2 12 22 0
-62 44 -39 0
-8 42 13 -14 38 -11 -33 0
53 48 -36 0
11 37 32 63 0
-53 55 -56 -46 0
28 -17 -58 0
33 30 -8 46 0
42 55 14 60 31 0
-20 33 -32 0
44 37 50 0
63 0
